(set-logic HORN)
(set-info :source |
    Benchmark: C_VC
    Output by Princess (http://www.philipp.ruemmer.org/princess.shtml)
|)
(set-info :status unknown)
(declare-fun inv_main100 (Int Int Int Int Int Int) Bool)
(declare-fun inv_main24 (Int Int Int Int Int Int) Bool)
(declare-fun inv_main27 (Int Int Int Int Int Int) Bool)
(declare-fun inv_main8 (Int Int Int Int Int Int) Bool)
(declare-fun inv_main92 (Int Int Int Int Int Int) Bool)
(declare-fun inv_main93 (Int Int Int Int Int Int) Bool)
(declare-fun inv_main94 (Int Int Int Int Int Int) Bool)
(declare-fun inv_main95 (Int Int Int Int Int Int) Bool)
(declare-fun inv_main96 (Int Int Int Int Int Int) Bool)
(declare-fun inv_main97 (Int Int Int Int Int Int) Bool)
(declare-fun inv_main98 (Int Int Int Int Int Int) Bool)
(declare-fun inv_main99 (Int Int Int Int Int Int) Bool)
(assert (forall ((var0 Int)) (forall ((var1 Int)) (forall ((var2 Int)) (forall ((var3 Int)) (forall ((var4 Int)) (forall ((var5 Int)) (inv_main8 var2 var1 var4 var0 var3 var5 ) ) ) ) ) ) ) )
(assert (forall ((var0 Int)) (forall ((var1 Int)) (forall ((var2 Int)) (forall ((var3 Int)) (forall ((var4 Int)) (forall ((var5 Int)) (or (not (inv_main27 var3 var2 var5 var1 var4 var0 ) ) (inv_main92 var3 var2 var5 var1 var4 var0 ) ) ) ) ) ) ) ) )
(assert (forall ((var0 Int)) (forall ((var1 Int)) (forall ((var2 Int)) (forall ((var3 Int)) (forall ((var4 Int)) (forall ((var5 Int)) (or (not (inv_main92 var3 var2 var5 var1 var4 var0 ) ) (inv_main93 var3 var2 var5 var1 var4 var0 ) ) ) ) ) ) ) ) )
(assert (forall ((var0 Int)) (forall ((var1 Int)) (forall ((var2 Int)) (forall ((var3 Int)) (forall ((var4 Int)) (forall ((var5 Int)) (or (not (inv_main93 var3 var2 var5 var1 var4 var0 ) ) (inv_main94 var3 var2 var5 var1 var4 var0 ) ) ) ) ) ) ) ) )
(assert (forall ((var0 Int)) (forall ((var1 Int)) (forall ((var2 Int)) (forall ((var3 Int)) (forall ((var4 Int)) (forall ((var5 Int)) (or (not (inv_main94 var3 var2 var5 var1 var4 var0 ) ) (inv_main95 var3 var2 var5 var1 var4 var0 ) ) ) ) ) ) ) ) )
(assert (forall ((var0 Int)) (forall ((var1 Int)) (forall ((var2 Int)) (forall ((var3 Int)) (forall ((var4 Int)) (forall ((var5 Int)) (or (not (inv_main95 var3 var2 var5 var1 var4 var0 ) ) (inv_main96 var3 var2 var5 var1 var4 var0 ) ) ) ) ) ) ) ) )
(assert (forall ((var0 Int)) (forall ((var1 Int)) (forall ((var2 Int)) (forall ((var3 Int)) (forall ((var4 Int)) (forall ((var5 Int)) (or (not (inv_main96 var3 var2 var5 var1 var4 var0 ) ) (inv_main97 var3 var2 var5 var1 var4 var0 ) ) ) ) ) ) ) ) )
(assert (forall ((var0 Int)) (forall ((var1 Int)) (forall ((var2 Int)) (forall ((var3 Int)) (forall ((var4 Int)) (forall ((var5 Int)) (or (not (inv_main97 var3 var2 var5 var1 var4 var0 ) ) (inv_main98 var3 var2 var5 var1 var4 var0 ) ) ) ) ) ) ) ) )
(assert (forall ((var0 Int)) (forall ((var1 Int)) (forall ((var2 Int)) (forall ((var3 Int)) (forall ((var4 Int)) (forall ((var5 Int)) (or (not (inv_main98 var3 var2 var5 var1 var4 var0 ) ) (inv_main99 var3 var2 var5 var1 var4 var0 ) ) ) ) ) ) ) ) )
(assert (forall ((var0 Int)) (forall ((var1 Int)) (forall ((var2 Int)) (forall ((var3 Int)) (forall ((var4 Int)) (forall ((var5 Int)) (or (not (inv_main99 var3 var2 var5 var1 var4 var0 ) ) (inv_main100 var3 var2 var5 var1 var4 var0 ) ) ) ) ) ) ) ) )
(assert (forall ((var0 Int)) (forall ((var1 Int)) (forall ((var2 Int)) (forall ((var3 Int)) (forall ((var4 Int)) (forall ((var5 Int)) (or (not (and (inv_main8 var3 var2 var5 var1 var4 var0 ) (and (= var0 0 ) (and (= var4 0 ) (and (= var1 1 ) (and (= var5 0 ) (and (= var2 0 ) (<= 0 (+ var3 (- 1) ) ) ) ) ) ) ) ) ) (inv_main24 var3 var2 var5 var1 var4 var0 ) ) ) ) ) ) ) ) )
(assert (forall ((var0 Int)) (forall ((var1 Int)) (forall ((var2 Int)) (forall ((var3 Int)) (forall ((var4 Int)) (forall ((var5 Int)) (forall ((var6 Int)) (or (not (and (inv_main24 var4 var3 var6 var2 var5 var1 ) (= var0 0 ) ) ) (inv_main27 var4 var3 var6 var2 var5 var1 ) ) ) ) ) ) ) ) ) )
(assert (forall ((var0 Int)) (forall ((var1 Int)) (forall ((var2 Int)) (forall ((var3 Int)) (forall ((var4 Int)) (forall ((var5 Int)) (forall ((var6 Int)) (forall ((var7 Int)) (or (not (and (inv_main24 var4 var3 var6 var2 var5 var1 ) (and (<= 0 (+ var2 (- 1) ) ) (and (<= 0 (+ var4 (- 1) ) ) (and (not (= var0 0 ) ) (not (= var7 0 ) ) ) ) ) ) ) (inv_main24 (+ var4 (- 1) ) (+ var3 1 ) var6 (+ var2 (- 1) ) (+ var5 1 ) var1 ) ) ) ) ) ) ) ) ) ) )
(assert (forall ((var0 Int)) (forall ((var1 Int)) (forall ((var2 Int)) (forall ((var3 Int)) (forall ((var4 Int)) (forall ((var5 Int)) (forall ((var6 Int)) (forall ((var7 Int)) (forall ((var8 Int)) (or (not (and (inv_main24 var4 var3 var7 var2 var6 var1 ) (and (<= 0 (+ var1 (- 1) ) ) (and (<= 0 (+ var3 (- 1) ) ) (and (not (= var0 0 ) ) (and (= var5 0 ) (not (= var8 0 ) ) ) ) ) ) ) ) (inv_main24 var4 (+ var3 (- 1) ) (+ var7 1 ) var2 var6 var1 ) ) ) ) ) ) ) ) ) ) ) )
(assert (forall ((var0 Int)) (forall ((var1 Int)) (forall ((var2 Int)) (forall ((var3 Int)) (forall ((var4 Int)) (forall ((var5 Int)) (forall ((var6 Int)) (forall ((var7 Int)) (forall ((var8 Int)) (forall ((var9 Int)) (or (not (and (inv_main24 var4 var3 var7 var2 var6 var1 ) (and (<= 0 (+ var7 (- 1) ) ) (and (<= 0 (+ var2 (- 1) ) ) (and (not (= var9 0 ) ) (and (= var0 0 ) (and (= var5 0 ) (not (= var8 0 ) ) ) ) ) ) ) ) ) (inv_main24 var4 (+ var3 1 ) (+ var7 (- 1) ) var2 var6 var1 ) ) ) ) ) ) ) ) ) ) ) ) )
(assert (forall ((var0 Int)) (forall ((var1 Int)) (forall ((var2 Int)) (forall ((var3 Int)) (forall ((var4 Int)) (forall ((var5 Int)) (forall ((var6 Int)) (forall ((var7 Int)) (forall ((var8 Int)) (forall ((var9 Int)) (forall ((var10 Int)) (or (not (and (inv_main24 var4 var3 var9 var2 var6 var1 ) (and (<= 0 (+ var9 (- 1) ) ) (and (not (= var8 0 ) ) (and (= var7 0 ) (and (= var0 0 ) (and (= var5 0 ) (not (= var10 0 ) ) ) ) ) ) ) ) ) (inv_main24 (+ var4 1 ) var3 (+ var9 (- 1) ) var2 0 (+ var1 var6 ) ) ) ) ) ) ) ) ) ) ) ) ) ) )
(assert (forall ((var0 Int)) (forall ((var1 Int)) (forall ((var2 Int)) (forall ((var3 Int)) (forall ((var4 Int)) (forall ((var5 Int)) (forall ((var6 Int)) (forall ((var7 Int)) (forall ((var8 Int)) (forall ((var9 Int)) (forall ((var10 Int)) (or (not (and (inv_main24 var4 var3 var9 var2 var7 var1 ) (and (<= 0 (+ var3 (- 1) ) ) (and (= var5 0 ) (and (= var8 0 ) (and (= var0 0 ) (and (= var6 0 ) (not (= var10 0 ) ) ) ) ) ) ) ) ) (inv_main24 (+ var4 1 ) (+ var3 (- 1) ) var9 (+ var2 var1 ) var7 0 ) ) ) ) ) ) ) ) ) ) ) ) ) )
(assert (forall ((var0 Int)) (forall ((var1 Int)) (forall ((var2 Int)) (forall ((var3 Int)) (forall ((var4 Int)) (forall ((var5 Int)) (not (and (inv_main27 var3 var2 var5 var1 var4 var0 ) (not (<= 0 (+ (+ (+ var1 var4 ) var0 ) (- 1) ) ) ) ) ) ) ) ) ) ) ) )
(assert (forall ((var0 Int)) (forall ((var1 Int)) (forall ((var2 Int)) (forall ((var3 Int)) (forall ((var4 Int)) (forall ((var5 Int)) (not (and (inv_main92 var3 var2 var5 var1 var4 var0 ) (not (<= 0 (* (- 1) (+ (+ (+ var1 var4 ) var0 ) (- 1) ) ) ) ) ) ) ) ) ) ) ) ) )
(assert (forall ((var0 Int)) (forall ((var1 Int)) (forall ((var2 Int)) (forall ((var3 Int)) (forall ((var4 Int)) (forall ((var5 Int)) (not (and (inv_main93 var3 var2 var5 var1 var4 var0 ) (not (<= 0 (+ 1 (* (- 1) (+ var1 var4 ) ) ) ) ) ) ) ) ) ) ) ) ) )
(assert (forall ((var0 Int)) (forall ((var1 Int)) (forall ((var2 Int)) (forall ((var3 Int)) (forall ((var4 Int)) (forall ((var5 Int)) (not (and (inv_main94 var3 var2 var5 var1 var4 var0 ) (not (<= 0 var4 ) ) ) ) ) ) ) ) ) ) )
(assert (forall ((var0 Int)) (forall ((var1 Int)) (forall ((var2 Int)) (forall ((var3 Int)) (forall ((var4 Int)) (forall ((var5 Int)) (not (and (inv_main95 var3 var2 var5 var1 var4 var0 ) (not (<= 0 var1 ) ) ) ) ) ) ) ) ) ) )
(assert (forall ((var0 Int)) (forall ((var1 Int)) (forall ((var2 Int)) (forall ((var3 Int)) (forall ((var4 Int)) (forall ((var5 Int)) (not (and (inv_main96 var3 var2 var5 var1 var4 var0 ) (not (<= 0 var5 ) ) ) ) ) ) ) ) ) ) )
(assert (forall ((var0 Int)) (forall ((var1 Int)) (forall ((var2 Int)) (forall ((var3 Int)) (forall ((var4 Int)) (forall ((var5 Int)) (not (and (inv_main97 var3 var2 var5 var1 var4 var0 ) (not (<= 0 var2 ) ) ) ) ) ) ) ) ) ) )
(assert (forall ((var0 Int)) (forall ((var1 Int)) (forall ((var2 Int)) (forall ((var3 Int)) (forall ((var4 Int)) (forall ((var5 Int)) (not (and (inv_main98 var3 var2 var5 var1 var4 var0 ) (not (<= 0 (+ (+ var3 var4 ) (- 1) ) ) ) ) ) ) ) ) ) ) ) )
(assert (forall ((var0 Int)) (forall ((var1 Int)) (forall ((var2 Int)) (forall ((var3 Int)) (forall ((var4 Int)) (forall ((var5 Int)) (not (and (inv_main99 var3 var2 var5 var1 var4 var0 ) (not (<= 0 (+ (+ var3 var2 ) (* (- 1) (+ var1 var4 ) ) ) ) ) ) ) ) ) ) ) ) ) )
(assert (forall ((var0 Int)) (forall ((var1 Int)) (forall ((var2 Int)) (forall ((var3 Int)) (forall ((var4 Int)) (forall ((var5 Int)) (not (and (inv_main100 var3 var2 var5 var1 var4 var0 ) (not (<= 0 (+ (+ (+ var3 var2 ) var5 ) (- 1) ) ) ) ) ) ) ) ) ) ) ) )
(check-sat)
